[[76, 85, 84, 94, 93, 92, 91, 83, 82, 73, 75, 74, 66, 65, 64, 56, 57, 58, 49, 55, 46, 47, 48, 39, 40, 38], [29, 37, 28, 30, 31, 21, 22, 19, 20, 13, 11, 10, 2, 12, 3, 4, 14, 5, 6, 7, 8, 9, 18, 17, 16, 15, 23, 24, 25, 26, 27, 35, 36, 44, 34, 43], [33, 32, 41, 42, 50, 51, 52, 45, 54, 53, 63, 62, 61, 60, 59, 67, 68, 77, 78, 69, 70, 71, 72, 81, 80, 79, 88, 89, 90, 99, 98, 97, 96, 87, 95, 86]]